10 5
1 2 22
1 3 61
1 4 22
1 5 97
1 6 59
1 7 4
1 8 75
1 9 14
1 10 65
2 3 37
2 4 86
2 5 89
2 6 60
2 7 9
2 8 49
2 9 25
2 10 53
3 4 78
3 5 95
3 6 45
3 7 43
3 8 54
3 9 94
3 10 74
4 5 79
4 6 4
4 7 88
4 8 82
4 9 54
4 10 13
5 6 76
5 7 36
5 8 38
5 9 47
5 10 70
6 7 46
6 8 45
6 9 52
6 10 10
7 8 23
7 9 49
7 10 15
8 9 35
8 10 34
9 10 2
